data;
/* data section */

set D := D1 D2 D3 D4 D5;

set L := L1 L2 L3;

param T :
        L1  L2  L3 :=
    D1  20  15  34
    D2  30  18  20
    D3  50  30  14
    D4  15  12  30
    D5  32  15  18
    ;

param NUM_LLAMADAS :=
    D1  5000
    D2  6500
    D3  5400
    D4  7500
    D5  5500
    ;

param NUM_MAX_LLAMADAS_PARKING := 10000;

param T_MAX := 35;

param PROPORCION_BALANCEO := 1.5;

end;
